# Node Net
 20   1
541   1
884   1
540   2
887   2
810   2
571   3
879   3
  4   3
661   4
 26   4
  7   4
872   5
420   5
892   5
240   6
875   6
 14   6
  3   7
211   7
481   7
  2   8
 29   8
898   8
 61   9
 11   9
150  10
 27  10
691  11
882  11
 16  12
 17  12
